<number of tasks>
25

<cycle time>
1440

<order strength>
0,20


<task times>
1 600
2 60
3 120
4 60
5 60
6 60
7 300
8 120
9 10
10 600
11 90
12 300
13 60
14 120
15 360
16 180
17 240
18 600
19 300
20 10
21 600
22 300
23 720
24 540
25 180

<precedence relations>
1,2
2,6
3,4
4,7
5,6
6,4
7,9
8,25
9,10
10,11
11,13
12,13
13,14
14,16
15,16
16,17
17,19
18,19
19,20
20,21
21,22
22,23
23,24
24,25


<end>
